Problem:    nodoArco
Rows:       13
Columns:    16 (16 integer, 16 binary)
Non-zeros:  48
Status:     INTEGER OPTIMAL
Objective:  profit = 6 (MAXimum)

   No.   Row name        Activity     Lower bound   Upper bound
------ ------------    ------------- ------------- -------------
     1 profit                      6                             
     2 cobertura[1]                1                           1 
     3 cobertura[2]                1                           1 
     4 cobertura[3]                1                           1 
     5 cobertura[4]                1                           1 
     6 cobertura[5]                1                           1 
     7 cobertura[6]                1                           1 
     8 cobertura[7]                1                           1 
     9 cobertura[8]                1                           1 
    10 cobertura[9]                1                           1 
    11 cobertura[10]
                                   1                           1 
    12 cobertura[11]
                                   1                           1 
    13 cobertura[12]
                                   1                           1 

   No. Column name       Activity     Lower bound   Upper bound
------ ------------    ------------- ------------- -------------
     1 x[1]         *              1             0             1 
     2 x[2]         *              0             0             1 
     3 x[3]         *              1             0             1 
     4 x[4]         *              0             0             1 
     5 x[5]         *              0             0             1 
     6 x[6]         *              0             0             1 
     7 x[7]         *              0             0             1 
     8 x[8]         *              1             0             1 
     9 x[9]         *              0             0             1 
    10 x[10]        *              0             0             1 
    11 x[11]        *              1             0             1 
    12 x[12]        *              0             0             1 
    13 x[13]        *              1             0             1 
    14 x[14]        *              0             0             1 
    15 x[15]        *              0             0             1 
    16 x[16]        *              1             0             1 

Integer feasibility conditions:

KKT.PE: max.abs.err = 0.00e+00 on row 0
        max.rel.err = 0.00e+00 on row 0
        High quality

KKT.PB: max.abs.err = 0.00e+00 on row 0
        max.rel.err = 0.00e+00 on row 0
        High quality

End of output
